82 151 81 188 139 159 130 123 116 43 195 176 148 51 64 45 60 74 172 7 134 127 95 90 31 107 192 28 196 189 190 79 150 63 38 85 131 69 71 10 185 136 164 87 88 169 80 178 94 115 141 118 78 22 77 19 186 34 146 76 62 129 152 194 126 66 111 106 23 65 145 193 128 158 114 163 144 98 157 73 109 12 3 53 142 177 42 14 171 26 103 147 11 100 35 175 37 92 140 112 1 20 181 91 27 5 39 182 113 133 119 83 173 138 16 15 58 50 30 33 167 6 9 2 93 96 161 199 155 97 166 48 137 13 25 4 102 75 32 101 122 72 61 135 55 24 156 56 46 162 105 59 99 47 41 184 168 40 191 86 52 108 153 36 143 179 67 165 170 160 0 180 121 44 17 84 54 8 18 29 117 154 57 120 21 89 125 174 183 68 124 104 198 110 70 187 197 49 132 149